
%FILE DATA:	Soccer Computational Problem for MiniZinc Models	%
%AUTHOR:	Jack Wall	%
%CONTACT:  	116397063@umail.ucc.ie			%
%LAST UPDATE:	01/29/2020, 10:18:07						%
%DESCRIPTION: 	-16 games played with 56 games left				%

n=8; %number of teams

%Games to play
games=[|1,2|4,3|1,6|6,7|4,7|4,2|5,1|5,8|2,7|2,5|3,5|1,7|1,3|2,4|5,7|5,6|1,8|3,4|2,6|1,5|4,1|3,6|8,1|7,1|7,3|6,5|2,8|2,1|5,4|6,8|7,6|8,3|6,1|7,5|6,4|8,4|4,5|4,6|6,3|4,8|3,1|2,3|3,7|8,5|7,8|1,4|5,2|5,3|3,8|8,2|6,2|3,2|7,2|7,4|8,6|8,7|];

%Initial points
iPoints=];

%POSITION CONSTRAINTS
% [|teamID, operator, position|...]
% operators index:
%  1 for =  operator
%  2 for >  operator
%  3 for >= operator
%  4 for <  operator
%  5 for <= operator
positionConstraints=[|8,4,2|];